c Reduced graph for GEOM120_0 generated by Cyril Grelier
p edge 109 696
e 1 6
e 1 15
e 1 17
e 1 19
e 1 26
e 1 29
e 1 39
e 1 47
e 1 48
e 1 57
e 1 63
e 1 64
e 1 77
e 1 79
e 1 81
e 1 83
e 1 105
e 2 14
e 2 16
e 2 27
e 2 38
e 2 46
e 2 51
e 2 54
e 2 61
e 2 62
e 2 65
e 2 84
e 2 86
e 2 87
e 2 101
e 2 104
e 3 21
e 3 25
e 3 30
e 3 31
e 3 50
e 3 52
e 3 67
e 3 68
e 3 69
e 3 78
e 3 88
e 3 93
e 3 97
e 3 106
e 4 5
e 4 18
e 4 19
e 4 44
e 4 47
e 4 49
e 4 53
e 4 55
e 4 60
e 4 75
e 4 79
e 4 85
e 4 99
e 4 100
e 5 12
e 5 17
e 5 19
e 5 36
e 5 37
e 5 44
e 5 49
e 5 55
e 5 59
e 5 75
e 5 85
e 5 100
e 6 9
e 6 15
e 6 26
e 6 28
e 6 29
e 6 39
e 6 48
e 6 63
e 6 64
e 6 82
e 6 87
e 6 105
e 7 20
e 7 30
e 7 34
e 7 35
e 7 40
e 7 50
e 7 68
e 7 82
e 7 88
e 7 90
e 7 92
e 7 95
e 8 11
e 8 23
e 8 24
e 8 42
e 8 45
e 8 56
e 8 74
e 8 76
e 8 89
e 8 94
e 8 96
e 8 102
e 9 26
e 9 28
e 9 29
e 9 64
e 9 66
e 9 71
e 9 87
e 9 91
e 9 105
e 9 109
e 10 23
e 10 35
e 10 41
e 10 58
e 10 73
e 10 82
e 10 89
e 10 94
e 10 95
e 10 109
e 11 24
e 11 42
e 11 45
e 11 56
e 11 76
e 11 89
e 11 94
e 11 96
e 11 102
e 12 36
e 12 37
e 12 44
e 12 55
e 12 59
e 12 75
e 12 100
e 13 16
e 13 46
e 13 51
e 13 54
e 13 57
e 13 77
e 13 81
e 13 83
e 14 16
e 14 26
e 14 27
e 14 28
e 14 38
e 14 46
e 14 51
e 14 54
e 14 61
e 14 62
e 14 65
e 14 80
e 14 81
e 14 84
e 14 86
e 14 87
e 14 101
e 14 104
e 15 17
e 15 19
e 15 20
e 15 26
e 15 29
e 15 39
e 15 40
e 15 47
e 15 48
e 15 49
e 15 63
e 15 64
e 15 79
e 15 81
e 15 83
e 15 105
e 16 27
e 16 38
e 16 46
e 16 51
e 16 54
e 16 61
e 16 62
e 16 65
e 16 84
e 16 86
e 16 87
e 16 101
e 16 104
e 17 19
e 17 26
e 17 47
e 17 48
e 17 49
e 17 57
e 17 63
e 17 77
e 17 79
e 17 81
e 17 83
e 17 85
e 18 20
e 18 34
e 18 39
e 18 43
e 18 47
e 18 49
e 18 53
e 18 60
e 18 79
e 18 90
e 18 92
e 18 99
e 18 103
e 19 39
e 19 47
e 19 48
e 19 49
e 19 63
e 19 64
e 19 79
e 19 83
e 19 85
e 20 34
e 20 39
e 20 40
e 20 47
e 20 48
e 20 53
e 20 64
e 20 79
e 20 82
e 20 90
e 20 92
e 21 30
e 21 31
e 21 32
e 21 50
e 21 52
e 21 67
e 21 68
e 21 69
e 21 88
e 21 93
e 21 97
e 21 98
e 21 106
e 22 33
e 22 38
e 22 61
e 22 62
e 22 65
e 22 66
e 22 70
e 22 72
e 22 80
e 22 86
e 22 91
e 22 107
e 22 108
e 23 24
e 23 33
e 23 42
e 23 45
e 23 58
e 23 73
e 23 76
e 24 42
e 24 45
e 24 56
e 24 76
e 24 96
e 25 31
e 25 67
e 25 78
e 25 93
e 25 97
e 25 106
e 26 28
e 26 29
e 26 46
e 26 57
e 26 63
e 26 64
e 26 77
e 26 81
e 26 83
e 26 87
e 26 104
e 26 105
e 27 28
e 27 38
e 27 46
e 27 51
e 27 54
e 27 61
e 27 62
e 27 65
e 27 80
e 27 84
e 27 86
e 27 87
e 27 101
e 27 104
e 28 29
e 28 38
e 28 61
e 28 66
e 28 71
e 28 86
e 28 87
e 28 91
e 28 104
e 28 105
e 29 39
e 29 40
e 29 48
e 29 63
e 29 64
e 29 71
e 29 82
e 29 105
e 30 34
e 30 50
e 30 52
e 30 67
e 30 68
e 30 69
e 30 88
e 30 93
e 30 97
e 30 106
e 31 50
e 31 52
e 31 67
e 31 68
e 31 69
e 31 78
e 31 93
e 31 97
e 31 106
e 32 35
e 32 41
e 32 52
e 32 69
e 32 74
e 32 88
e 32 89
e 32 94
e 32 95
e 32 98
e 32 102
e 33 58
e 33 66
e 33 70
e 33 71
e 33 72
e 33 73
e 33 80
e 33 91
e 33 107
e 33 108
e 34 40
e 34 43
e 34 50
e 34 53
e 34 68
e 34 90
e 34 92
e 35 41
e 35 82
e 35 88
e 35 89
e 35 94
e 35 95
e 35 98
e 35 109
e 36 37
e 36 44
e 36 55
e 36 59
e 36 75
e 36 100
e 37 44
e 37 55
e 37 59
e 37 75
e 37 100
e 38 46
e 38 61
e 38 62
e 38 65
e 38 66
e 38 70
e 38 71
e 38 72
e 38 80
e 38 86
e 38 87
e 38 91
e 38 104
e 38 107
e 38 108
e 39 40
e 39 47
e 39 48
e 39 49
e 39 63
e 39 64
e 39 79
e 39 82
e 39 90
e 39 92
e 39 105
e 40 47
e 40 48
e 40 64
e 40 79
e 40 82
e 40 90
e 40 92
e 41 73
e 41 74
e 41 82
e 41 89
e 41 94
e 41 95
e 41 96
e 41 102
e 41 109
e 42 45
e 42 56
e 42 58
e 42 76
e 42 89
e 42 96
e 43 50
e 43 53
e 43 60
e 43 90
e 43 92
e 43 99
e 43 103
e 44 55
e 44 59
e 44 75
e 44 100
e 45 56
e 45 58
e 45 76
e 45 96
e 46 51
e 46 54
e 46 57
e 46 61
e 46 81
e 46 83
e 46 84
e 46 86
e 46 87
e 46 104
e 47 48
e 47 49
e 47 53
e 47 64
e 47 79
e 47 85
e 47 90
e 47 92
e 48 49
e 48 63
e 48 64
e 48 79
e 48 85
e 48 92
e 48 105
e 49 53
e 49 55
e 49 79
e 49 85
e 49 92
e 49 99
e 49 100
e 50 52
e 50 67
e 50 68
e 50 69
e 50 88
e 50 93
e 50 97
e 50 106
e 51 54
e 51 61
e 51 62
e 51 65
e 51 84
e 51 86
e 51 101
e 51 104
e 52 67
e 52 68
e 52 69
e 52 88
e 52 93
e 52 97
e 52 98
e 52 106
e 53 60
e 53 79
e 53 90
e 53 92
e 53 99
e 53 103
e 54 61
e 54 84
e 54 101
e 54 104
e 55 59
e 55 75
e 55 99
e 55 100
e 56 74
e 56 76
e 56 89
e 56 94
e 56 96
e 56 102
e 57 63
e 57 77
e 57 81
e 57 83
e 57 87
e 58 66
e 58 70
e 58 73
e 58 76
e 58 91
e 59 75
e 59 100
e 60 90
e 60 99
e 60 103
e 61 62
e 61 65
e 61 80
e 61 84
e 61 86
e 61 87
e 61 101
e 61 104
e 62 65
e 62 72
e 62 80
e 62 84
e 62 86
e 62 87
e 62 101
e 62 104
e 62 107
e 62 108
e 63 64
e 63 77
e 63 81
e 63 83
e 63 87
e 63 105
e 64 79
e 64 82
e 64 105
e 65 72
e 65 80
e 65 84
e 65 86
e 65 101
e 65 107
e 66 70
e 66 71
e 66 72
e 66 73
e 66 80
e 66 86
e 66 91
e 66 107
e 66 108
e 67 68
e 67 69
e 67 78
e 67 88
e 67 93
e 67 97
e 67 106
e 68 69
e 68 88
e 68 93
e 68 97
e 68 106
e 69 88
e 69 93
e 69 97
e 69 98
e 69 106
e 70 71
e 70 72
e 70 73
e 70 80
e 70 86
e 70 91
e 70 107
e 70 108
e 71 73
e 71 91
e 71 107
e 71 108
e 71 109
e 72 80
e 72 86
e 72 91
e 72 107
e 72 108
e 73 76
e 73 91
e 73 109
e 74 89
e 74 94
e 74 95
e 74 96
e 74 98
e 74 102
e 75 100
e 77 81
e 77 83
e 78 97
e 79 90
e 79 92
e 79 105
e 80 86
e 80 91
e 80 104
e 80 107
e 80 108
e 81 83
e 81 87
e 81 104
e 81 105
e 82 88
e 82 95
e 82 109
e 83 87
e 84 101
e 86 87
e 86 104
e 86 107
e 86 108
e 87 104
e 87 105
e 88 93
e 88 95
e 88 98
e 88 106
e 89 94
e 89 95
e 89 96
e 89 98
e 89 102
e 89 109
e 90 92
e 90 99
e 90 103
e 91 107
e 91 108
e 92 99
e 93 97
e 93 106
e 94 95
e 94 96
e 94 98
e 94 102
e 95 98
e 95 109
e 96 102
e 97 106
e 98 102
e 98 106
e 99 100
e 99 103
e 107 108
